job_count = 22 ;
duration = [|7, 17, 13, 2|35, 9, 18, 1|22, 22, 2, 4|4, 20, 8, 2|4, 9, 17, 2|37, 15, 14, 1|37, 11, 17, 9|31, 18, 19, 8|12, 8, 17, 6|30, 3, 8, 2|28, 15, 19, 2|32, 23, 3, 3|31, 11, 17, 1|4, 10, 3, 1|7, 27, 17, 5|15, 20, 10, 6|25, 29, 10, 9|22, 14, 16, 3|12, 3, 14, 8|31, 18, 2, 4|30, 10, 10, 4|32, 27, 12, 2|] ;
machine_count = 4 ;
cost = [|11, 35, 42, 61|12, 26, 32, 79|10, 26, 55, 66|11, 32, 36, 68|17, 22, 48, 41|10, 23, 33, 71|13, 24, 47, 61|11, 22, 30, 57|17, 22, 56, 59|18, 20, 30, 62|19, 27, 33, 50|13, 28, 51, 67|11, 27, 31, 77|14, 28, 30, 51|10, 25, 44, 66|14, 21, 38, 71|16, 23, 54, 77|12, 29, 32, 68|10, 26, 56, 52|12, 38, 37, 64|14, 29, 55, 59|15, 24, 41, 47|] ;
deadline = [46, 46, 46, 46, 46, 46, 46, 46, 46, 46, 46, 46, 46, 46, 46, 46, 46, 46, 46, 46, 46, 46] ;
release = [0, 0, 0, 0, 0, 0, 0, 0, 0, 0, 0, 0, 0, 0, 0, 0, 0, 0, 0, 0, 0, 0] ;
resource = [|8, 8, 8, 8|9, 9, 9, 9|9, 9, 9, 9|8, 8, 8, 8|2, 2, 2, 2|4, 4, 4, 4|2, 2, 2, 2|1, 1, 1, 1|5, 5, 5, 5|3, 3, 3, 3|1, 1, 1, 1|5, 5, 5, 5|4, 4, 4, 4|4, 4, 4, 4|2, 2, 2, 2|9, 9, 9, 9|3, 3, 3, 3|5, 5, 5, 5|7, 7, 7, 7|3, 3, 3, 3|4, 4, 4, 4|8, 8, 8, 8|] ;
capacities = [10, 10, 10, 10] ;
